cases/matpower/case3.m
ipopt
ACP
[info | PowerModels]: extending matpower format with constant data: const_int
[info | PowerModels]: extending matpower format with constant data: const_float
[info | PowerModels]: extending matpower format with data: bus_data 3x3
[info | PowerModels]: extending matpower format with data: branch_names 3x3
[info | PowerModels]: extending matpower format with data: areas_cells 2x6
[info | PowerModels]: extending matpower format with data: areas_named_cells 2x6
[info | PowerModels]: extending matpower format with data: areas_named 2x3
[info | PowerModels]: extending matpower format with data: component 1x3
[info | PowerModels]: extending matpower format with data: areas 2x3
[info | PowerModels]: extending matpower format with constant data: const_str
[info | PowerModels]: extending matpower format with data: load_data 2x2
[info | PowerModels]: extending matpower format with data: branch_limit 3x3
[warn | PowerModels]: added zero cost function data for dclines
[info | PowerModels]: extending matpower format by appending matrix "branch_limit" in to "branch"
[info | PowerModels]: extending matpower format by appending matrix "branch_names" in to "branch"
[info | PowerModels]: extending matpower format by appending matrix "bus_data" in to "bus"
[warn | PowerModels]: no reference bus found
[warn | PowerModels]: no reference bus found, setting bus 1 as reference based on generator 1
[info | PowerModels]: removing 3 cost terms from generator 3: Float64[]
[info | PowerModels]: removing 3 cost terms from dcline 1: Float64[]

******************************************************************************
This program contains Ipopt, a library for large-scale nonlinear optimization.
 Ipopt is released as open source code under the Eclipse Public License (EPL).
         For more information visit http://projects.coin-or.org/Ipopt
******************************************************************************

This is Ipopt version 3.13.2, running with linear solver mumps.
NOTE: Other linear solvers might be more efficient (see Ipopt documentation).

Number of nonzeros in equality constraint Jacobian...:       22
Number of nonzeros in inequality constraint Jacobian.:       12
Number of nonzeros in Lagrangian Hessian.............:        2

Total number of variables............................:       10
                     variables with only lower bounds:        0
                variables with lower and upper bounds:        7
                     variables with only upper bounds:        0
Total number of equality constraints.................:        8
Total number of inequality constraints...............:        6
        inequality constraints with only lower bounds:        3
   inequality constraints with lower and upper bounds:        0
        inequality constraints with only upper bounds:        3

iter    objective    inf_pr   inf_du lg(mu)  ||d||  lg(rg) alpha_du alpha_pr  ls
   0  6.3949934e+00 1.20e+00 2.58e+01  -1.0 0.00e+00    -  0.00e+00 0.00e+00   0
   1  3.7316806e+03 2.45e-01 1.40e+02  -1.0 1.80e+00    -  5.79e-03 7.96e-01h  1
   2  4.1037615e+03 1.93e-01 1.11e+02  -1.0 4.18e-01    -  9.69e-01 2.13e-01h  1
   3  4.2609589e+03 1.72e-01 2.09e+02  -1.0 2.84e-01    -  1.00e+00 1.08e-01h  1
   4  5.3917782e+03 4.06e-02 1.19e+02  -1.0 4.03e-01    -  1.00e+00 7.64e-01h  1
   5  5.7835283e+03 5.55e-17 1.00e-06  -1.0 9.50e-02    -  1.00e+00 1.00e+00h  1
   6  5.7820816e+03 2.22e-16 2.83e-08  -2.5 1.37e-03    -  1.00e+00 1.00e+00f  1
   7  5.7820343e+03 4.16e-17 1.50e-09  -3.8 4.48e-05    -  1.00e+00 1.00e+00f  1
   8  5.7820321e+03 1.11e-16 1.84e-11  -5.7 2.12e-06    -  1.00e+00 1.00e+00f  1
   9  5.7820320e+03 2.22e-16 8.78e-14  -8.6 2.62e-08    -  1.00e+00 1.00e+00f  1

Number of Iterations....: 9

                                   (scaled)                 (unscaled)
Objective...............:   1.1564064084857587e+03    5.7820320424287929e+03
Dual infeasibility......:   8.7760242667180553e-14    4.3880121333590277e-13
Constraint violation....:   2.2204460492503131e-16    2.2204460492503131e-16
Complementarity.........:   2.5060839901590196e-09    1.2530419950795097e-08
Overall NLP error.......:   2.5060839901590196e-09    1.2530419950795097e-08


Number of objective function evaluations             = 10
Number of objective gradient evaluations             = 10
Number of equality constraint evaluations            = 10
Number of inequality constraint evaluations          = 10
Number of equality constraint Jacobian evaluations   = 1
Number of inequality constraint Jacobian evaluations = 1
Number of Lagrangian Hessian evaluations             = 1
Total CPU secs in IPOPT (w/o function evaluations)   =      0.225
Total CPU secs in NLP function evaluations           =      0.211

EXIT: Optimal Solution Found.
This is Ipopt version 3.13.2, running with linear solver mumps.
NOTE: Other linear solvers might be more efficient (see Ipopt documentation).

Number of nonzeros in equality constraint Jacobian...:       84
Number of nonzeros in inequality constraint Jacobian.:       24
Number of nonzeros in Lagrangian Hessian.............:      134

Total number of variables............................:       27
                     variables with only lower bounds:        0
                variables with lower and upper bounds:       24
                     variables with only upper bounds:        0
Total number of equality constraints.................:       20
Total number of inequality constraints...............:       12
        inequality constraints with only lower bounds:        3
   inequality constraints with lower and upper bounds:        0
        inequality constraints with only upper bounds:        9

The equality constraints contain an invalid number

Number of Iterations....: 0

Number of objective function evaluations             = 0
Number of objective gradient evaluations             = 1
Number of equality constraint evaluations            = 1
Number of inequality constraint evaluations          = 1
Number of equality constraint Jacobian evaluations   = 1
Number of inequality constraint Jacobian evaluations = 1
Number of Lagrangian Hessian evaluations             = 0
Total CPU secs in IPOPT (w/o function evaluations)   =      1.016
Total CPU secs in NLP function evaluations           =      0.022

EXIT: Invalid number in NLP function or derivative detected.
Time to Solution........:1.1067039966583252
